; benchmark generated from python API
(set-info :status unknown)
(declare-fun n () Int)
(declare-fun t_b (Int) Bool)
(declare-fun t_a (Int) Bool)
(declare-fun h_a (Int) Int)
(declare-fun h_b (Int) Int)
(assert
 (= n 20))
(assert
 (let (($x8411 (t_b 1)))
 (let (($x8400 (t_a 1)))
 (or $x8400 $x8411))))
(assert
 (let (($x8418 (t_b 2)))
 (let (($x1608 (t_a 2)))
 (or $x1608 $x8418))))
(assert
 (let (($x2532 (t_b 3)))
 (let (($x8422 (t_a 3)))
 (or $x8422 $x2532))))
(assert
 (let (($x8428 (t_b 4)))
 (let (($x1755 (t_a 4)))
 (or $x1755 $x8428))))
(assert
 (let (($x1930 (t_b 5)))
 (let (($x8430 (t_a 5)))
 (or $x8430 $x1930))))
(assert
 (let (($x8444 (t_b 6)))
 (let (($x8442 (t_a 6)))
 (or $x8442 $x8444))))
(assert
 (let (($x2354 (t_b 7)))
 (let (($x8455 (t_a 7)))
 (or $x8455 $x2354))))
(assert
 (let (($x8459 (t_b 8)))
 (let (($x1858 (t_a 8)))
 (or $x1858 $x8459))))
(assert
 (let (($x2672 (t_b 9)))
 (let (($x8378 (t_a 9)))
 (or $x8378 $x2672))))
(assert
 (let (($x8436 (t_b 10)))
 (let (($x3806 (t_a 10)))
 (or $x3806 $x8436))))
(assert
 (let (($x8461 (t_b 11)))
 (let (($x8447 (t_a 11)))
 (or $x8447 $x8461))))
(assert
 (let (($x2431 (t_b 12)))
 (let (($x8357 (t_a 12)))
 (or $x8357 $x2431))))
(assert
 (let (($x8345 (t_b 13)))
 (let (($x48 (t_a 13)))
 (or $x48 $x8345))))
(assert
 (let (($x166 (t_b 14)))
 (let (($x8359 (t_a 14)))
 (or $x8359 $x166))))
(assert
 (let (($x8368 (t_b 15)))
 (let (($x2031 (t_a 15)))
 (or $x2031 $x8368))))
(assert
 (let (($x8382 (t_b 16)))
 (let (($x2417 (t_a 16)))
 (or $x2417 $x8382))))
(assert
 (let (($x8414 (t_b 17)))
 (let (($x808 (t_a 17)))
 (or $x808 $x8414))))
(assert
 (let (($x8432 (t_b 18)))
 (let (($x2735 (t_a 18)))
 (or $x2735 $x8432))))
(assert
 (let (($x8451 (t_b 19)))
 (let (($x1254 (t_a 19)))
 (or $x1254 $x8451))))
(assert
 (let (($x901 (t_b 20)))
 (let (($x1949 (t_a 20)))
 (or $x1949 $x901))))
(assert
 (let ((?x1836 (h_a 1)))
 (= 0 ?x1836)))
(assert
 (let ((?x1836 (h_a 1)))
 (let ((?x1692 (h_a 2)))
 (let (($x164 (= ?x1692 ?x1836)))
 (let (($x8400 (t_a 1)))
 (ite $x8400 (= ?x1692 (+ ?x1836 1)) $x164))))))
(assert
 (let ((?x1692 (h_a 2)))
 (let ((?x8370 (h_a 3)))
 (let (($x8437 (= ?x8370 ?x1692)))
 (let (($x1608 (t_a 2)))
 (ite $x1608 (= ?x8370 (+ ?x1692 1)) $x8437))))))
(assert
 (let ((?x8370 (h_a 3)))
 (let ((?x8396 (h_a 4)))
 (let (($x8425 (= ?x8396 ?x8370)))
 (let (($x8422 (t_a 3)))
 (ite $x8422 (= ?x8396 (+ ?x8370 1)) $x8425))))))
(assert
 (let ((?x8396 (h_a 4)))
 (let ((?x8285 (h_a 5)))
 (let (($x2709 (= ?x8285 ?x8396)))
 (let (($x1755 (t_a 4)))
 (ite $x1755 (= ?x8285 (+ ?x8396 1)) $x2709))))))
(assert
 (let ((?x8285 (h_a 5)))
 (let ((?x37 (h_a 6)))
 (let (($x2667 (= ?x37 ?x8285)))
 (let (($x8430 (t_a 5)))
 (ite $x8430 (= ?x37 (+ ?x8285 1)) $x2667))))))
(assert
 (let ((?x37 (h_a 6)))
 (let ((?x2622 (h_a 7)))
 (let (($x2608 (= ?x2622 ?x37)))
 (let (($x8442 (t_a 6)))
 (ite $x8442 (= ?x2622 (+ ?x37 1)) $x2608))))))
(assert
 (let ((?x2622 (h_a 7)))
 (let ((?x2578 (h_a 8)))
 (let (($x2536 (= ?x2578 ?x2622)))
 (let (($x8455 (t_a 7)))
 (ite $x8455 (= ?x2578 (+ ?x2622 1)) $x2536))))))
(assert
 (let ((?x2578 (h_a 8)))
 (let ((?x5976 (h_a 9)))
 (let (($x5973 (= ?x5976 ?x2578)))
 (let (($x1858 (t_a 8)))
 (ite $x1858 (= ?x5976 (+ ?x2578 1)) $x5973))))))
(assert
 (let ((?x5976 (h_a 9)))
 (let ((?x2461 (h_a 10)))
 (let (($x5964 (= ?x2461 ?x5976)))
 (let (($x8378 (t_a 9)))
 (ite $x8378 (= ?x2461 (+ ?x5976 1)) $x5964))))))
(assert
 (let ((?x2461 (h_a 10)))
 (let ((?x2391 (h_a 11)))
 (let (($x853 (= ?x2391 ?x2461)))
 (let (($x3806 (t_a 10)))
 (ite $x3806 (= ?x2391 (+ ?x2461 1)) $x853))))))
(assert
 (let ((?x2391 (h_a 11)))
 (let ((?x506 (h_a 12)))
 (let (($x470 (= ?x506 ?x2391)))
 (let (($x8447 (t_a 11)))
 (ite $x8447 (= ?x506 (+ ?x2391 1)) $x470))))))
(assert
 (let ((?x506 (h_a 12)))
 (let ((?x2280 (h_a 13)))
 (let (($x2264 (= ?x2280 ?x506)))
 (let (($x8357 (t_a 12)))
 (ite $x8357 (= ?x2280 (+ ?x506 1)) $x2264))))))
(assert
 (let ((?x2280 (h_a 13)))
 (let ((?x5934 (h_a 14)))
 (let (($x2216 (= ?x5934 ?x2280)))
 (let (($x48 (t_a 13)))
 (ite $x48 (= ?x5934 (+ ?x2280 1)) $x2216))))))
(assert
 (let ((?x5934 (h_a 14)))
 (let ((?x257 (h_a 15)))
 (let (($x2129 (= ?x257 ?x5934)))
 (let (($x8359 (t_a 14)))
 (ite $x8359 (= ?x257 (+ ?x5934 1)) $x2129))))))
(assert
 (let ((?x257 (h_a 15)))
 (let ((?x1518 (h_a 16)))
 (let (($x2074 (= ?x1518 ?x257)))
 (let (($x2031 (t_a 15)))
 (ite $x2031 (= ?x1518 (+ ?x257 1)) $x2074))))))
(assert
 (let ((?x1518 (h_a 16)))
 (let ((?x2049 (h_a 17)))
 (let (($x2022 (= ?x2049 ?x1518)))
 (let (($x2417 (t_a 16)))
 (ite $x2417 (= ?x2049 (+ ?x1518 1)) $x2022))))))
(assert
 (let ((?x2049 (h_a 17)))
 (let ((?x1107 (h_a 18)))
 (let (($x1975 (= ?x1107 ?x2049)))
 (let (($x808 (t_a 17)))
 (ite $x808 (= ?x1107 (+ ?x2049 1)) $x1975))))))
(assert
 (let ((?x1107 (h_a 18)))
 (let ((?x5889 (h_a 19)))
 (let (($x5886 (= ?x5889 ?x1107)))
 (let (($x2735 (t_a 18)))
 (ite $x2735 (= ?x5889 (+ ?x1107 1)) $x5886))))))
(assert
 (let ((?x5889 (h_a 19)))
 (let ((?x1809 (h_a 20)))
 (let (($x5877 (= ?x1809 ?x5889)))
 (let (($x1254 (t_a 19)))
 (ite $x1254 (= ?x1809 (+ ?x5889 1)) $x5877))))))
(assert
 (let ((?x1809 (h_a 20)))
 (let ((?x5871 (h_a 21)))
 (let (($x5868 (= ?x5871 ?x1809)))
 (let (($x1949 (t_a 20)))
 (ite $x1949 (= ?x5871 (+ ?x1809 1)) $x5868))))))
(assert
 (let ((?x1758 (h_b 1)))
 (= 0 ?x1758)))
(assert
 (let ((?x1758 (h_b 1)))
 (let ((?x1729 (h_b 2)))
 (let (($x5856 (= ?x1729 ?x1758)))
 (let (($x8411 (t_b 1)))
 (ite $x8411 (= ?x1729 (+ ?x1758 1)) $x5856))))))
(assert
 (let ((?x1729 (h_b 2)))
 (let ((?x5850 (h_b 3)))
 (let (($x5847 (= ?x5850 ?x1729)))
 (let (($x8418 (t_b 2)))
 (ite $x8418 (= ?x5850 (+ ?x1729 1)) $x5847))))))
(assert
 (let ((?x5850 (h_b 3)))
 (let ((?x1663 (h_b 4)))
 (let (($x5838 (= ?x1663 ?x5850)))
 (let (($x2532 (t_b 3)))
 (ite $x2532 (= ?x1663 (+ ?x5850 1)) $x5838))))))
(assert
 (let ((?x1663 (h_b 4)))
 (let ((?x780 (h_b 5)))
 (let (($x2743 (= ?x780 ?x1663)))
 (let (($x8428 (t_b 4)))
 (ite $x8428 (= ?x780 (+ ?x1663 1)) $x2743))))))
(assert
 (let ((?x780 (h_b 5)))
 (let ((?x5519 (h_b 6)))
 (let (($x5528 (= ?x5519 ?x780)))
 (let (($x1930 (t_b 5)))
 (ite $x1930 (= ?x5519 (+ ?x780 1)) $x5528))))))
(assert
 (let ((?x5519 (h_b 6)))
 (let ((?x5816 (h_b 7)))
 (let (($x5555 (= ?x5816 ?x5519)))
 (let (($x8444 (t_b 6)))
 (ite $x8444 (= ?x5816 (+ ?x5519 1)) $x5555))))))
(assert
 (let ((?x5816 (h_b 7)))
 (let ((?x5573 (h_b 8)))
 (let (($x5582 (= ?x5573 ?x5816)))
 (let (($x2354 (t_b 7)))
 (ite $x2354 (= ?x5573 (+ ?x5816 1)) $x5582))))))
(assert
 (let ((?x5573 (h_b 8)))
 (let ((?x4759 (h_b 9)))
 (let (($x4750 (= ?x4759 ?x5573)))
 (let (($x8459 (t_b 8)))
 (ite $x8459 (= ?x4759 (+ ?x5573 1)) $x4750))))))
(assert
 (let ((?x4759 (h_b 9)))
 (let ((?x4732 (h_b 10)))
 (let (($x4723 (= ?x4732 ?x4759)))
 (let (($x2672 (t_b 9)))
 (ite $x2672 (= ?x4732 (+ ?x4759 1)) $x4723))))))
(assert
 (let ((?x4732 (h_b 10)))
 (let ((?x4705 (h_b 11)))
 (let (($x4696 (= ?x4705 ?x4732)))
 (let (($x8436 (t_b 10)))
 (ite $x8436 (= ?x4705 (+ ?x4732 1)) $x4696))))))
(assert
 (let ((?x4705 (h_b 11)))
 (let ((?x4678 (h_b 12)))
 (let (($x4669 (= ?x4678 ?x4705)))
 (let (($x8461 (t_b 11)))
 (ite $x8461 (= ?x4678 (+ ?x4705 1)) $x4669))))))
(assert
 (let ((?x4678 (h_b 12)))
 (let ((?x4651 (h_b 13)))
 (let (($x4642 (= ?x4651 ?x4678)))
 (let (($x2431 (t_b 12)))
 (ite $x2431 (= ?x4651 (+ ?x4678 1)) $x4642))))))
(assert
 (let ((?x4651 (h_b 13)))
 (let ((?x4624 (h_b 14)))
 (let (($x4615 (= ?x4624 ?x4651)))
 (let (($x8345 (t_b 13)))
 (ite $x8345 (= ?x4624 (+ ?x4651 1)) $x4615))))))
(assert
 (let ((?x4624 (h_b 14)))
 (let ((?x4597 (h_b 15)))
 (let (($x4588 (= ?x4597 ?x4624)))
 (let (($x166 (t_b 14)))
 (ite $x166 (= ?x4597 (+ ?x4624 1)) $x4588))))))
(assert
 (let ((?x4597 (h_b 15)))
 (let ((?x4570 (h_b 16)))
 (let (($x4561 (= ?x4570 ?x4597)))
 (let (($x8368 (t_b 15)))
 (ite $x8368 (= ?x4570 (+ ?x4597 1)) $x4561))))))
(assert
 (let ((?x4570 (h_b 16)))
 (let ((?x4543 (h_b 17)))
 (let (($x4534 (= ?x4543 ?x4570)))
 (let (($x8382 (t_b 16)))
 (ite $x8382 (= ?x4543 (+ ?x4570 1)) $x4534))))))
(assert
 (let ((?x4543 (h_b 17)))
 (let ((?x4516 (h_b 18)))
 (let (($x4507 (= ?x4516 ?x4543)))
 (let (($x8414 (t_b 17)))
 (ite $x8414 (= ?x4516 (+ ?x4543 1)) $x4507))))))
(assert
 (let ((?x4516 (h_b 18)))
 (let ((?x4489 (h_b 19)))
 (let (($x4480 (= ?x4489 ?x4516)))
 (let (($x8432 (t_b 18)))
 (ite $x8432 (= ?x4489 (+ ?x4516 1)) $x4480))))))
(assert
 (let ((?x4489 (h_b 19)))
 (let ((?x4462 (h_b 20)))
 (let (($x4453 (= ?x4462 ?x4489)))
 (let (($x8451 (t_b 19)))
 (ite $x8451 (= ?x4462 (+ ?x4489 1)) $x4453))))))
(assert
 (let ((?x4462 (h_b 20)))
 (let ((?x4435 (h_b 21)))
 (let (($x4426 (= ?x4435 ?x4462)))
 (let (($x901 (t_b 20)))
 (ite $x901 (= ?x4435 (+ ?x4462 1)) $x4426))))))
(assert
 (let (($x8411 (t_b 1)))
 (let (($x5678 (not $x8411)))
 (let ((?x1758 (h_b 1)))
 (let ((?x1836 (h_a 1)))
 (let (($x3727 (= ?x1836 ?x1758)))
 (=> $x3727 $x5678)))))))
(assert
 (let (($x8418 (t_b 2)))
 (let (($x3745 (not $x8418)))
 (let ((?x1729 (h_b 2)))
 (let ((?x1692 (h_a 2)))
 (let (($x4390 (= ?x1692 ?x1729)))
 (=> $x4390 $x3745)))))))
(assert
 (let (($x2532 (t_b 3)))
 (let (($x4372 (not $x2532)))
 (let ((?x5850 (h_b 3)))
 (let ((?x8370 (h_a 3)))
 (let (($x5669 (= ?x8370 ?x5850)))
 (=> $x5669 $x4372)))))))
(assert
 (let (($x8428 (t_b 4)))
 (let (($x5663 (not $x8428)))
 (let ((?x1663 (h_b 4)))
 (let ((?x8396 (h_a 4)))
 (let (($x3772 (= ?x8396 ?x1663)))
 (=> $x3772 $x5663)))))))
(assert
 (let (($x1930 (t_b 5)))
 (let (($x3789 (not $x1930)))
 (let ((?x780 (h_b 5)))
 (let ((?x8285 (h_a 5)))
 (let (($x4345 (= ?x8285 ?x780)))
 (=> $x4345 $x3789)))))))
(assert
 (let (($x8444 (t_b 6)))
 (let (($x4325 (not $x8444)))
 (let ((?x5519 (h_b 6)))
 (let ((?x37 (h_a 6)))
 (let (($x5653 (= ?x37 ?x5519)))
 (=> $x5653 $x4325)))))))
(assert
 (let (($x2354 (t_b 7)))
 (let (($x5646 (not $x2354)))
 (let ((?x5816 (h_b 7)))
 (let ((?x2622 (h_a 7)))
 (let (($x22 (= ?x2622 ?x5816)))
 (=> $x22 $x5646)))))))
(assert
 (let (($x8459 (t_b 8)))
 (let (($x3021 (not $x8459)))
 (let ((?x5573 (h_b 8)))
 (let ((?x2578 (h_a 8)))
 (let (($x2710 (= ?x2578 ?x5573)))
 (=> $x2710 $x3021)))))))
(assert
 (let (($x2672 (t_b 9)))
 (let (($x3024 (not $x2672)))
 (let ((?x4759 (h_b 9)))
 (let ((?x5976 (h_a 9)))
 (let (($x2697 (= ?x5976 ?x4759)))
 (=> $x2697 $x3024)))))))
(assert
 (let (($x8436 (t_b 10)))
 (let (($x3027 (not $x8436)))
 (let ((?x4732 (h_b 10)))
 (let ((?x2461 (h_a 10)))
 (let (($x2688 (= ?x2461 ?x4732)))
 (=> $x2688 $x3027)))))))
(assert
 (let (($x8461 (t_b 11)))
 (let (($x3030 (not $x8461)))
 (let ((?x4705 (h_b 11)))
 (let ((?x2391 (h_a 11)))
 (let (($x2668 (= ?x2391 ?x4705)))
 (=> $x2668 $x3030)))))))
(assert
 (let (($x2431 (t_b 12)))
 (let (($x3038 (not $x2431)))
 (let ((?x4678 (h_b 12)))
 (let ((?x506 (h_a 12)))
 (let (($x2641 (= ?x506 ?x4678)))
 (=> $x2641 $x3038)))))))
(assert
 (let (($x8345 (t_b 13)))
 (let (($x3042 (not $x8345)))
 (let ((?x4651 (h_b 13)))
 (let ((?x2280 (h_a 13)))
 (let (($x2623 (= ?x2280 ?x4651)))
 (=> $x2623 $x3042)))))))
(assert
 (let (($x166 (t_b 14)))
 (let (($x3045 (not $x166)))
 (let ((?x4624 (h_b 14)))
 (let ((?x5934 (h_a 14)))
 (let (($x2073 (= ?x5934 ?x4624)))
 (=> $x2073 $x3045)))))))
(assert
 (let (($x8368 (t_b 15)))
 (let (($x3048 (not $x8368)))
 (let ((?x4597 (h_b 15)))
 (let ((?x257 (h_a 15)))
 (let (($x2582 (= ?x257 ?x4597)))
 (=> $x2582 $x3048)))))))
(assert
 (let (($x8382 (t_b 16)))
 (let (($x3051 (not $x8382)))
 (let ((?x4570 (h_b 16)))
 (let ((?x1518 (h_a 16)))
 (let (($x1446 (= ?x1518 ?x4570)))
 (=> $x1446 $x3051)))))))
(assert
 (let (($x8414 (t_b 17)))
 (let (($x3054 (not $x8414)))
 (let ((?x4543 (h_b 17)))
 (let ((?x2049 (h_a 17)))
 (let (($x84 (= ?x2049 ?x4543)))
 (=> $x84 $x3054)))))))
(assert
 (let (($x8432 (t_b 18)))
 (let (($x3057 (not $x8432)))
 (let ((?x4516 (h_b 18)))
 (let ((?x1107 (h_a 18)))
 (let (($x2528 (= ?x1107 ?x4516)))
 (=> $x2528 $x3057)))))))
(assert
 (let (($x8451 (t_b 19)))
 (let (($x3060 (not $x8451)))
 (let ((?x4489 (h_b 19)))
 (let ((?x5889 (h_a 19)))
 (let (($x281 (= ?x5889 ?x4489)))
 (=> $x281 $x3060)))))))
(assert
 (let (($x901 (t_b 20)))
 (let (($x3063 (not $x901)))
 (let ((?x4462 (h_b 20)))
 (let ((?x1809 (h_a 20)))
 (let (($x2482 (= ?x1809 ?x4462)))
 (=> $x2482 $x3063)))))))
(assert
 (let (($x2456 (not (t_b 21))))
 (let ((?x4435 (h_b 21)))
 (let ((?x5871 (h_a 21)))
 (let (($x2465 (= ?x5871 ?x4435)))
 (=> $x2465 $x2456))))))
(check-sat)
